
  32   50
  11    9   12   13   12    2   16   15   12    9   15    8   13    9   22   10   10    6    0    9   12    4    9   16   10    9   10   10    9   10   15   11    0    0    0    0    0    0    0    0    0    0    0    0    0    0    0    0    0    0

   0   0   0   0   0   0   0   0   0   0   0   0   0   0   0   0   0   0   0   0   0   0   0   0   0   0   0   0   0   0   0   0   0   0   0   0   0   0   0   0   0   0   0   0   0   0   0   0   0   0   0  10 2 3 4 5 6 7 8 9 12 13 
   8   0   0   9   0   0   0   0   0   0   0   0   0   0   0   1   0   0   0   0   0   0   4   0   0   0   0   0   0   7   0   0   0   0   0   0   0   0   0   0   0   0   0   0   0   0   0   0   0   0   0   6 31 20 17 15 14 10 
   8   0   1   0   0   0   0   0   0   0   0   0   0   0   0   1   9   0   0   0   6   0   0   0   0   0   0   0   7   0   3   0   0   0   0   0   0   0   0   0   0   0   0   0   0   0   0   0   0   0   0   9 29 28 26 20 19 18 17 16 15 
   9   0   0   0   0   0   0   0   0   0   0   0   0  10   0   0   0   0   0   0   6   0   0   0   0   0   0   0   0   0   0   0   0   0   0   0   0   0   0   0   0   0   0   0   0   0   0   0   0   0   0   5 28 26 21 18 11 
   9   9   0   6   0   7   0   0   1   0   6   0   0   0   0   0   0   0   0   0   0   0   0   0   0   0   0   0   0   3   0   9   0   0   0   0   0   0   0   0   0   0   0   0   0   0   0   0   0   0   0   8 30 29 26 24 23 20 18 17 
   6   3   0   0   2   0   0   0   0   0   0   0   0   0   0   0   0   0   0   0   0   0   0   0   9   0   2  10   0   0   0   0   0   0   0   0   0   0   0   0   0   0   0   0   0   0   0   0   0   0   0   6 31 30 23 19 15 14 
   5   0   0   0   0   7   0   0   8   0   0   0   0   0   0   5   0   0   0   0   0   0   0   0   0   0   0   0   0   0   0   0   0   0   0   0   0   0   0   0   0   0   0   0   0   0   0   0   0   0   0   7 31 28 26 25 23 20 18 
   4   0   0   0   0   0   0   8   0   0   0   0   0   0   0   0   0   0   0   0   0   0   0   0   0   0   0   0   0   0   8   0   0   0   0   0   0   0   0   0   0   0   0   0   0   0   0   0   0   0   0   7 30 28 27 26 25 23 15 
   2   0   0   0   0   0   0   0   0   0   0   0   0   0   0   0   0   0   0   0   0   4   0   0   0   7   0   0   0   0   0   0   0   0   0   0   0   0   0   0   0   0   0   0   0   0   0   0   0   0   0   7 28 27 26 23 21 19 15 
   5   0   9   0   0   0   0   0   0   0   0   0   0   0   0   0   2   0   0   0   0   0   0   0  10   0   0   0   0   0   0   0   0   0   0   0   0   0   0   0   0   0   0   0   0   0   0   0   0   0   0   6 28 26 24 23 19 18 
  10   0   0   0   0   0   0   0   0   0   0   4   0   0   0   0   0   0   0   0   0   0   0   0  10   0   0   0   0   0   9   0   0   0   0   0   0   0   0   0   0   0   0   0   0   0   0   0   0   0   0   4 30 25 16 15 
   8   1   0   0  10   0   1   0   7   0   1   0   0   0   0   0   0   0   0   0   0   0   0   0   0   0   0   0   0   0   0   0   0   0   0   0   0   0   0   0   0   0   0   0   0   0   0   0   0   0   0   4 29 28 24 16 
   3   0   0   0   0   0   0   4   0   0   0   0   2   0   0   6   0   0   0   0   0   0   0   0   0   0   0   0   0   0   0   0   0   0   0   0   0   0   0   0   0   0   0   0   0   0   0   0   0   0   0   5 29 26 25 23 22 
  10   0   0   0   0   0   0   0   0   0   3   2   5   5   0   9   0  10   0   0   0   0   0   0   0   0   0   0   0   0   0   4   7   0   0   0   0   0   0   0   0   0   0   0   0   0   0   0   0   0   0   3 29 25 24 
  10   0   0   0   0   0   0   0   0   0   0   0   0   0   0   0   3   0   0   0   0   0   0   0   0   0   0   9   0   3   0   0   6   0   0   0   0   0   0   0   0   0   0   0   0   0   0   0   0   0   0   2 24 22 
   1   0   1   7   0   0   0   0   0   0   0   7   0   0   9   0   4   0   0   0   0   0   0   9   0   0   0   0   0   0   0   0   0   0   0   0   0   0   0   0   0   0   0   0   0   0   0   0   0   0   0   2 23 22 
   7   0   0   0   5   0   0   0   0   0   8   0   5   0   2   0   0   0   0   0   0   0   0   0   0   0   0   0   0   0   0   0   0   0   0   0   0   0   0   0   0   0   0   0   0   0   0   0   0   0   0   2 25 22 
   6   0   0   0   0   0   0  10   0   0   0   0   0   0   0   0   0   1   0   0   0   0   2   0   0   0   2   0   0   0   1   0   0   0   0   0   0   0   0   0   0   0   0   0   0   0   0   0   0   0   0   1 27 
   7   0   0   0   0   0   0   0   0   8   0   0   0   0   0  10   0   0   0   0   0   9   0   0   0   0   0   0   0   0   0   0   0   0   0   0   0   0   0   0   0   0   0   0   0   0   0   0   0   0   0   1 22 
   7   0   0   0   0   0   0   0   0   0   0   0   0   0   0  10   0   0   6   0   0   3   0   0   0   0   0   0   0   0   1   0   0   0   0   0   0   0   0   0   0   0   0   0   0   0   0   0   0   0   0   1 22 
   3   0   0   0   0   0   2   0   0   0   0   4   0   0   0   0   0   0   0   0   0   0   0   0   0   0   0   0   0   0   0   0   0   0   0   0   0   0   0   0   0   0   0   0   0   0   0   0   0   0   0   1 24 
   8   0   0   0   9   0   0   0   0   5   0   4   0   0   0   0   0   0   0   0   0   0   0   8   0   0   0   0   0   0   0   0   0   0   0   0   0   0   0   0   0   0   0   0   0   0   0   0   0   0   0   1 32
   6   0   0   0   0   0   0   0   1   0   0   0   0   0   0   0   0   0   0   0   0   0   0   2   0   0   0   0   0   0   0   0   7   0   0   0   0   0   0   0   0   0   0   0   0   0   0   0   0   0   0   1 32
   2   0   0   0   0   0   2   0   0   9   0   0   2   0   0   0   0   0   0   0   0   0   0   0   0   2   0   0   0   8   0   0   0   0   0   0   0   0   0   0   0   0   0   0   0   0   0   0   0   0   0   1 32
  10   0   0   0   0  10   0   0   0   0   0  10   0   0   0   0   0   0   0   0   0   0   0   0   7   2   0   0   0   0   0   0   0   0   0   0   0   0   0   0   0   0   0   0   0   0   0   0   0   0   0   1 32
   6   9   0   0  10   8   2   0  10   0   0   0   0   0   0   0  10   0   0   0   0   0   1   3   0   0   0   0   0   0   0   0   0   0   0   0   0   0   0   0   0   0   0   0   0   0   0   0   0   0   0   1 32
   4   0   0   0   0   0   0   0   0   0   0   2   0   0   0   0   0   2   0   0   4   6   0   0   0   0   6   0   0   0   0   0   1   0   0   0   0   0   0   0   0   0   0   0   0   0   0   0   0   0   0   1 32
   2   0   5   1   0   0   0  10   6   0   0   0   0   0   0   0   0   0   0   0   0   0   0   6   2   0   0   0   0   0   0   0   2   0   0   0   0   0   0   0   0   0   0   0   0   0   0   0   0   0   0   1 32
   5   0   0   0   0   3   1   0   8   0   0   0   0   0   0   0   0   0   0   0   0   0   0   0   0   0   0   0   0   4   0   4   0   0   0   0   0   0   0   0   0   0   0   0   0   0   0   0   0   0   0   1 32
   4   0   0   0   0   0   0   0   0   0   0   0   0   0   0   0   0   0   0   0   0   0   0   0   0   0   6   0  10   0   7   9   0   0   0   0   0   0   0   0   0   0   0   0   0   0   0   0   0   0   0   1 32
   5   0   0   0   5   0   0   0   0   0   0   0   0   0   0   0   0   0   0   0   0   0   0   0   0  10   0   0   0   0   0   6   0   0   0   0   0   0   0   0   0   0   0   0   0   0   0   0   0   0   0   1 32
   0   0   0   0   0   0   0   0   0   0   0   0   0   0   0   0   0   0   0   0   0   0   0   0   0   0   0   0   0   0   0   0   0   0   0   0   0   0   0   0   0   0   0   0   0   0   0   0   0   0   0   0 
